param set_len = 20;
param target = 699772;
param values := [0] 76501 [1] 43341 [2] 83468 [3] 93525 [4] 105287 [5] 78719 [6] 75286 [7] 18802 [8] 129721 [9] 57321 [10] 23638 [11] 66926 [12] 121668 [13] 59304 [14] 27667 [15] 111269 [16] 48609 [17] 28554 [18] 66673 [19] 103839 ;
